DIMACS_lns/graph-1000-769.col
p edge 1000 1809
e 1 504
e 1 371
e 1 898
e 2 926
e 2 577
e 2 15
e 2 141
e 2 157
e 2 342
e 3 986
e 3 268
e 3 655
e 4 119
e 4 104
e 4 766
e 4 671
e 4 576
e 4 799
e 4 565
e 4 688
e 5 133
e 5 964
e 5 341
e 5 39
e 5 148
e 5 285
e 6 901
e 6 369
e 6 320
e 6 852
e 6 589
e 6 982
e 8 912
e 8 314
e 8 307
e 8 967
e 8 870
e 8 973
e 8 559
e 10 893
e 10 248
e 10 244
e 10 429
e 10 855
e 10 850
e 11 931
e 11 680
e 11 49
e 11 40
e 11 756
e 12 653
e 12 316
e 12 121
e 12 807
e 12 271
e 12 726
e 12 971
e 14 363
e 14 279
e 14 562
e 14 824
e 14 283
e 15 50
e 15 885
e 18 275
e 18 597
e 18 163
e 18 671
e 18 354
e 19 501
e 19 750
e 19 619
e 19 813
e 20 804
e 20 977
e 20 132
e 21 954
e 21 48
e 21 126
e 21 798
e 22 778
e 22 186
e 22 674
e 22 976
e 24 583
e 24 381
e 24 898
e 24 232
e 25 470
e 25 805
e 25 354
e 26 277
e 26 510
e 26 466
e 26 663
e 27 493
e 27 479
e 27 656
e 27 872
e 27 80
e 27 679
e 28 645
e 28 744
e 28 688
e 28 807
e 29 672
e 29 721
e 29 201
e 29 459
e 29 464
e 29 785
e 30 763
e 30 209
e 30 502
e 30 140
e 34 459
e 34 334
e 34 340
e 34 839
e 34 962
e 34 696
e 35 405
e 35 356
e 35 396
e 35 736
e 35 649
e 35 806
e 35 421
e 36 230
e 36 993
e 36 369
e 37 100
e 37 496
e 37 876
e 37 837
e 37 205
e 37 734
e 38 924
e 38 891
e 38 383
e 38 345
e 38 64
e 38 434
e 39 994
e 39 866
e 40 300
e 40 209
e 40 131
e 40 204
e 41 252
e 41 371
e 41 717
e 41 752
e 42 326
e 42 835
e 42 502
e 42 77
e 42 74
e 43 590
e 43 231
e 43 853
e 43 514
e 44 314
e 44 137
e 44 208
e 44 645
e 45 285
e 45 805
e 45 839
e 47 647
e 47 808
e 47 828
e 47 953
e 47 403
e 47 210
e 47 480
e 47 919
e 48 132
e 48 622
e 48 830
e 48 342
e 49 687
e 49 964
e 49 353
e 50 886
e 50 554
e 50 755
e 51 162
e 51 400
e 51 258
e 51 127
e 52 282
e 52 508
e 52 614
e 52 456
e 52 581
e 52 274
e 52 812
e 53 423
e 53 934
e 53 697
e 53 208
e 53 722
e 53 896
e 54 524
e 54 177
e 54 652
e 54 620
e 54 404
e 54 251
e 54 386
e 55 75
e 55 499
e 55 659
e 57 947
e 57 552
e 57 277
e 57 203
e 57 447
e 57 899
e 58 703
e 58 473
e 58 621
e 58 583
e 59 961
e 59 362
e 59 190
e 59 550
e 59 645
e 62 911
e 62 618
e 62 683
e 62 203
e 63 985
e 63 201
e 63 924
e 63 614
e 64 878
e 64 321
e 64 978
e 64 636
e 65 562
e 65 820
e 65 110
e 66 842
e 66 824
e 66 95
e 66 813
e 66 473
e 68 682
e 68 956
e 68 566
e 68 343
e 68 828
e 68 849
e 68 158
e 69 679
e 69 341
e 69 221
e 70 620
e 70 534
e 70 993
e 70 476
e 71 869
e 71 227
e 71 250
e 71 82
e 71 438
e 71 244
e 71 79
e 71 200
e 71 553
e 71 839
e 72 706
e 72 368
e 72 239
e 73 357
e 73 680
e 73 831
e 73 648
e 73 890
e 73 278
e 73 692
e 73 262
e 74 608
e 74 438
e 74 501
e 75 941
e 75 303
e 75 274
e 77 806
e 77 720
e 77 265
e 77 297
e 78 118
e 78 382
e 78 771
e 78 893
e 78 82
e 79 423
e 79 607
e 79 764
e 80 605
e 80 224
e 80 558
e 80 981
e 81 691
e 81 318
e 81 209
e 82 542
e 82 198
e 82 836
e 82 164
e 82 217
e 83 443
e 83 301
e 83 712
e 83 278
e 83 645
e 85 607
e 85 264
e 85 569
e 87 971
e 87 217
e 87 261
e 87 876
e 87 361
e 88 772
e 88 193
e 88 955
e 90 478
e 90 910
e 90 990
e 90 398
e 90 406
e 91 879
e 91 866
e 91 901
e 91 649
e 92 911
e 92 557
e 92 405
e 92 131
e 95 889
e 95 961
e 96 973
e 96 386
e 96 567
e 96 437
e 96 730
e 98 736
e 98 104
e 98 504
e 98 780
e 100 888
e 100 126
e 100 602
e 100 321
e 102 579
e 102 642
e 102 421
e 102 586
e 103 560
e 103 895
e 103 237
e 103 780
e 104 361
e 104 306
e 104 424
e 104 569
e 104 526
e 104 354
e 106 282
e 106 224
e 106 217
e 106 535
e 107 709
e 107 235
e 107 865
e 107 441
e 107 403
e 107 456
e 108 917
e 108 467
e 108 959
e 109 158
e 109 674
e 109 814
e 110 766
e 110 641
e 112 917
e 112 466
e 112 260
e 115 398
e 115 360
e 115 860
e 115 837
e 115 346
e 115 362
e 116 123
e 116 427
e 116 710
e 116 161
e 117 270
e 117 643
e 117 867
e 117 931
e 117 480
e 117 157
e 117 784
e 118 960
e 118 215
e 118 580
e 118 937
e 118 341
e 118 870
e 119 914
e 119 186
e 119 681
e 120 412
e 120 294
e 120 769
e 120 122
e 121 624
e 121 199
e 122 664
e 122 160
e 123 208
e 123 837
e 124 128
e 124 965
e 124 409
e 124 489
e 126 756
e 126 703
e 126 598
e 126 316
e 126 945
e 127 384
e 127 352
e 127 371
e 127 146
e 127 462
e 127 720
e 127 994
e 128 215
e 128 684
e 128 255
e 129 194
e 129 567
e 129 162
e 130 453
e 130 791
e 130 313
e 130 514
e 131 417
e 131 804
e 132 442
e 132 536
e 132 323
e 132 221
e 132 553
e 132 298
e 132 507
e 132 376
e 133 996
e 133 624
e 133 961
e 134 789
e 134 332
e 134 312
e 135 911
e 135 332
e 135 622
e 137 725
e 137 400
e 137 760
e 137 653
e 137 411
e 138 966
e 138 990
e 138 612
e 138 362
e 140 862
e 140 325
e 140 932
e 140 882
e 141 476
e 141 143
e 142 181
e 142 851
e 142 334
e 142 299
e 143 451
e 143 360
e 143 692
e 143 146
e 145 363
e 145 654
e 145 858
e 146 455
e 146 744
e 147 528
e 147 823
e 147 707
e 147 305
e 148 550
e 148 863
e 150 730
e 150 629
e 150 647
e 151 323
e 151 389
e 151 808
e 151 265
e 151 366
e 151 162
e 152 591
e 152 799
e 152 175
e 152 549
e 152 853
e 152 412
e 152 278
e 153 403
e 153 692
e 153 564
e 153 849
e 153 835
e 153 402
e 153 182
e 154 973
e 154 494
e 154 184
e 155 224
e 155 628
e 155 535
e 155 876
e 155 834
e 156 645
e 156 361
e 156 199
e 157 745
e 157 646
e 157 757
e 158 247
e 158 563
e 158 182
e 158 666
e 158 454
e 158 630
e 158 726
e 160 464
e 160 485
e 160 589
e 161 679
e 161 892
e 161 872
e 161 187
e 162 249
e 162 360
e 162 599
e 162 807
e 162 442
e 163 724
e 163 709
e 163 247
e 163 329
e 163 206
e 164 930
e 164 816
e 164 251
e 164 191
e 166 441
e 166 211
e 166 828
e 166 476
e 166 506
e 166 186
e 166 837
e 166 920
e 167 749
e 167 184
e 167 201
e 169 186
e 169 674
e 169 426
e 170 785
e 170 175
e 170 839
e 172 538
e 172 899
e 172 582
e 172 942
e 173 536
e 173 277
e 173 528
e 173 1000
e 175 352
e 175 934
e 175 323
e 177 751
e 177 487
e 177 252
e 177 606
e 177 342
e 177 820
e 181 552
e 181 456
e 181 659
e 182 429
e 182 476
e 182 847
e 182 560
e 183 319
e 183 580
e 183 455
e 183 870
e 184 305
e 184 278
e 185 992
e 185 645
e 185 672
e 186 842
e 186 994
e 186 584
e 186 869
e 186 462
e 187 866
e 187 336
e 188 681
e 188 696
e 188 351
e 188 305
e 189 443
e 189 507
e 189 677
e 189 813
e 190 326
e 190 718
e 191 1000
e 191 779
e 191 774
e 193 869
e 193 864
e 193 849
e 194 363
e 194 666
e 198 863
e 198 847
e 198 599
e 199 342
e 200 998
e 200 816
e 200 722
e 200 799
e 200 426
e 200 552
e 201 447
e 201 774
e 201 228
e 201 952
e 201 475
e 202 373
e 202 664
e 202 427
e 202 467
e 203 286
e 203 268
e 203 650
e 203 596
e 204 787
e 204 763
e 204 809
e 205 609
e 205 400
e 205 673
e 205 934
e 205 749
e 206 960
e 206 351
e 206 383
e 206 412
e 207 720
e 207 290
e 207 526
e 208 876
e 208 695
e 209 287
e 210 352
e 210 644
e 210 677
e 211 750
e 211 586
e 213 659
e 213 407
e 213 215
e 215 964
e 215 513
e 215 814
e 217 502
e 217 932
e 218 584
e 218 355
e 218 890
e 218 824
e 218 737
e 220 353
e 220 334
e 220 286
e 220 948
e 220 931
e 220 944
e 221 579
e 221 627
e 221 864
e 221 717
e 221 349
e 222 857
e 222 659
e 222 739
e 222 753
e 224 624
e 224 784
e 224 830
e 224 568
e 224 839
e 224 386
e 224 565
e 224 618
e 224 310
e 226 258
e 226 325
e 226 461
e 227 766
e 227 812
e 228 836
e 228 958
e 230 249
e 230 908
e 230 384
e 230 439
e 231 723
e 231 930
e 232 750
e 232 569
e 232 473
e 234 927
e 234 932
e 234 363
e 234 783
e 234 935
e 235 320
e 235 297
e 235 645
e 235 621
e 236 607
e 236 905
e 236 844
e 237 959
e 237 386
e 237 899
e 237 269
e 237 336
e 237 910
e 238 790
e 238 487
e 238 987
e 239 814
e 239 710
e 239 771
e 241 520
e 241 721
e 241 609
e 242 274
e 242 737
e 242 295
e 243 392
e 243 620
e 243 274
e 244 944
e 244 558
e 244 541
e 246 365
e 246 599
e 246 926
e 246 474
e 247 889
e 247 980
e 247 744
e 247 675
e 248 950
e 248 661
e 248 479
e 249 976
e 249 819
e 249 562
e 249 472
e 249 667
e 250 641
e 250 970
e 251 801
e 251 903
e 252 462
e 254 576
e 254 986
e 254 683
e 255 626
e 255 663
e 258 835
e 258 429
e 260 565
e 260 936
e 260 323
e 261 368
e 261 976
e 261 564
e 261 512
e 262 343
e 262 492
e 262 734
e 262 604
e 262 798
e 262 516
e 262 416
e 262 530
e 264 710
e 264 759
e 265 687
e 266 471
e 266 319
e 266 641
e 266 835
e 268 627
e 268 977
e 268 980
e 269 940
e 269 545
e 269 284
e 269 728
e 269 290
e 270 379
e 270 330
e 270 800
e 270 502
e 270 951
e 270 793
e 271 568
e 271 641
e 271 834
e 271 352
e 271 947
e 273 637
e 273 848
e 273 728
e 273 897
e 274 996
e 274 487
e 274 971
e 275 994
e 275 691
e 276 719
e 276 288
e 276 897
e 276 681
e 276 705
e 276 334
e 277 581
e 277 491
e 278 402
e 278 670
e 279 386
e 279 290
e 279 535
e 282 677
e 282 687
e 282 659
e 282 546
e 283 986
e 283 907
e 284 678
e 284 489
e 285 867
e 285 901
e 285 912
e 285 965
e 285 520
e 285 806
e 286 493
e 287 918
e 287 355
e 288 374
e 288 510
e 288 555
e 288 514
e 288 790
e 288 481
e 288 567
e 288 595
e 290 562
e 290 924
e 290 552
e 292 618
e 292 943
e 292 717
e 292 318
e 293 516
e 293 765
e 293 585
e 294 379
e 294 942
e 295 748
e 295 887
e 295 918
e 295 679
e 296 537
e 296 495
e 296 382
e 297 461
e 297 356
e 297 713
e 298 820
e 298 497
e 298 464
e 298 383
e 298 823
e 298 432
e 299 662
e 299 550
e 299 336
e 299 674
e 300 786
e 300 852
e 300 968
e 301 358
e 301 848
e 303 985
e 303 684
e 303 531
e 303 702
e 305 794
e 305 886
e 306 784
e 306 749
e 306 639
e 306 558
e 306 534
e 307 580
e 307 554
e 308 378
e 308 705
e 308 912
e 308 896
e 310 548
e 310 405
e 310 544
e 312 448
e 312 555
e 313 968
e 313 926
e 313 918
e 313 948
e 313 985
e 313 553
e 314 557
e 314 333
e 314 752
e 314 948
e 314 903
e 316 435
e 316 892
e 316 825
e 316 383
e 318 622
e 318 470
e 318 671
e 318 971
e 318 997
e 319 962
e 319 945
e 319 809
e 319 730
e 319 698
e 319 347
e 320 890
e 320 513
e 320 636
e 320 392
e 320 957
e 320 352
e 320 541
e 321 568
e 321 855
e 321 392
e 321 374
e 322 980
e 322 464
e 322 599
e 323 837
e 323 932
e 323 556
e 325 839
e 325 606
e 326 784
e 329 504
e 329 663
e 329 702
e 329 338
e 330 875
e 330 625
e 330 385
e 331 730
e 331 404
e 331 848
e 332 661
e 332 594
e 332 508
e 332 971
e 333 602
e 333 744
e 333 692
e 333 724
e 334 520
e 336 630
e 338 559
e 338 897
e 338 921
e 338 674
e 339 374
e 339 635
e 339 545
e 339 483
e 340 698
e 340 954
e 340 702
e 340 551
e 341 379
e 342 814
e 342 908
e 342 705
e 343 603
e 343 743
e 343 966
e 345 967
e 345 595
e 346 982
e 346 607
e 347 662
e 347 966
e 348 645
e 348 462
e 348 609
e 349 667
e 349 956
e 349 887
e 351 697
e 351 924
e 351 878
e 352 451
e 352 354
e 352 784
e 353 953
e 354 976
e 354 696
e 354 602
e 354 621
e 355 453
e 355 677
e 355 555
e 355 799
e 355 365
e 356 884
e 356 899
e 357 898
e 357 801
e 357 658
e 358 495
e 358 824
e 358 423
e 358 378
e 360 535
e 360 842
e 360 789
e 360 998
e 360 725
e 362 726
e 362 456
e 362 947
e 363 760
e 363 799
e 365 522
e 365 980
e 365 645
e 365 624
e 365 924
e 366 390
e 366 948
e 366 405
e 366 816
e 367 735
e 367 940
e 367 537
e 367 674
e 368 985
e 368 514
e 368 390
e 368 727
e 368 891
e 369 967
e 369 566
e 369 712
e 369 487
e 369 512
e 371 829
e 371 682
e 373 854
e 373 483
e 374 854
e 374 599
e 374 643
e 375 635
e 375 727
e 375 855
e 376 411
e 376 584
e 376 736
e 378 643
e 378 577
e 378 549
e 378 688
e 378 544
e 379 725
e 379 594
e 379 563
e 379 680
e 381 495
e 381 411
e 381 716
e 382 537
e 382 888
e 382 907
e 383 702
e 383 917
e 383 396
e 384 855
e 385 625
e 385 528
e 386 721
e 386 664
e 386 914
e 389 481
e 389 804
e 390 476
e 390 599
e 390 546
e 391 505
e 391 606
e 391 478
e 391 437
e 392 787
e 392 421
e 392 709
e 392 867
e 396 841
e 396 912
e 396 724
e 396 659
e 397 821
e 397 451
e 397 884
e 397 599
e 398 918
e 398 614
e 400 930
e 400 513
e 400 858
e 400 867
e 401 530
e 401 650
e 401 898
e 401 774
e 401 538
e 402 681
e 403 743
e 403 538
e 404 902
e 405 917
e 406 575
e 406 642
e 406 470
e 407 782
e 407 718
e 407 635
e 407 427
e 409 869
e 409 967
e 409 591
e 409 850
e 409 627
e 411 769
e 411 805
e 411 447
e 411 786
e 412 902
e 412 619
e 412 534
e 412 940
e 416 957
e 416 759
e 416 596
e 417 522
e 417 766
e 421 778
e 421 981
e 421 717
e 423 860
e 423 871
e 423 968
e 423 750
e 423 549
e 424 675
e 424 664
e 424 730
e 424 599
e 424 640
e 426 629
e 426 994
e 427 962
e 427 736
e 427 955
e 427 882
e 429 876
e 429 679
e 429 884
e 429 790
e 429 583
e 429 445
e 430 556
e 430 588
e 430 647
e 431 586
e 431 679
e 431 981
e 431 858
e 432 595
e 432 441
e 432 745
e 432 640
e 434 546
e 434 654
e 434 639
e 435 884
e 435 919
e 437 970
e 437 889
e 438 882
e 438 728
e 439 825
e 439 658
e 441 814
e 442 482
e 443 559
e 443 795
e 443 992
e 443 957
e 443 495
e 444 962
e 444 646
e 444 464
e 445 559
e 445 603
e 448 661
e 448 698
e 449 727
e 449 726
e 449 815
e 449 970
e 451 637
e 453 986
e 453 566
e 454 779
e 454 861
e 455 666
e 456 857
e 456 480
e 459 538
e 461 925
e 461 505
e 462 805
e 464 759
e 466 951
e 467 584
e 467 650
e 467 579
e 467 944
e 467 577
e 467 531
e 470 839
e 470 937
e 471 760
e 471 489
e 472 487
e 472 629
e 472 968
e 473 926
e 473 756
e 473 635
e 474 815
e 474 721
e 474 737
e 475 655
e 475 771
e 475 581
e 476 925
e 476 596
e 476 761
e 478 800
e 478 661
e 478 769
e 478 1000
e 478 585
e 479 675
e 480 957
e 480 534
e 481 791
e 482 570
e 482 713
e 483 819
e 483 824
e 485 750
e 485 878
e 487 801
e 489 628
e 491 896
e 491 764
e 492 844
e 492 971
e 492 524
e 493 666
e 494 889
e 494 625
e 495 695
e 495 989
e 496 837
e 496 501
e 497 515
e 497 837
e 497 665
e 497 735
e 497 693
e 497 683
e 499 756
e 499 783
e 501 806
e 501 664
e 502 679
e 504 848
e 505 588
e 505 516
e 505 841
e 506 1000
e 506 907
e 506 861
e 507 816
e 508 782
e 510 844
e 510 950
e 510 652
e 512 549
e 513 996
e 513 569
e 515 881
e 515 808
e 515 968
e 515 602
e 516 719
e 516 659
e 520 750
e 520 937
e 520 971
e 520 930
e 521 704
e 521 745
e 521 564
e 522 889
e 524 958
e 524 629
e 526 640
e 526 730
e 526 764
e 526 615
e 526 707
e 528 885
e 530 886
e 531 667
e 531 697
e 531 977
e 534 771
e 534 786
e 534 645
e 535 884
e 536 656
e 537 703
e 537 854
e 538 804
e 541 755
e 542 993
e 542 725
e 544 902
e 545 717
e 545 838
e 546 604
e 546 627
e 546 910
e 546 756
e 546 854
e 546 673
e 548 827
e 548 854
e 548 679
e 550 907
e 550 554
e 550 982
e 551 869
e 551 817
e 551 885
e 553 612
e 555 994
e 555 661
e 556 955
e 557 943
e 558 998
e 558 663
e 558 841
e 558 994
e 558 878
e 559 852
e 559 853
e 560 990
e 560 576
e 560 888
e 562 749
e 562 938
e 563 717
e 564 847
e 565 967
e 565 926
e 566 938
e 566 671
e 566 798
e 566 596
e 568 630
e 568 706
e 568 602
e 569 751
e 569 860
e 570 745
e 570 709
e 573 849
e 573 942
e 573 791
e 573 682
e 573 955
e 573 757
e 574 903
e 574 585
e 574 583
e 575 808
e 575 670
e 575 831
e 575 675
e 577 771
e 579 649
e 579 688
e 579 659
e 581 926
e 581 677
e 581 987
e 582 950
e 582 966
e 583 586
e 584 940
e 585 718
e 586 732
e 588 751
e 588 646
e 588 932
e 588 779
e 589 755
e 589 793
e 589 778
e 590 739
e 590 764
e 591 982
e 591 710
e 593 804
e 593 812
e 593 927
e 594 712
e 594 996
e 594 885
e 595 745
e 595 860
e 595 782
e 595 920
e 596 636
e 597 992
e 597 956
e 597 951
e 598 939
e 598 782
e 599 872
e 599 921
e 602 872
e 602 712
e 603 705
e 603 674
e 604 960
e 604 847
e 605 798
e 605 930
e 606 895
e 608 832
e 608 914
e 609 884
e 609 871
e 609 809
e 612 809
e 612 625
e 614 652
e 615 891
e 615 723
e 618 881
e 618 695
e 618 641
e 619 645
e 619 622
e 619 857
e 622 649
e 624 661
e 624 921
e 625 631
e 625 627
e 625 908
e 626 635
e 626 726
e 626 935
e 626 842
e 627 850
e 627 889
e 628 784
e 628 973
e 628 662
e 629 902
e 631 857
e 631 938
e 631 965
e 631 636
e 631 907
e 635 943
e 635 914
e 636 939
e 636 936
e 637 890
e 637 936
e 637 718
e 639 901
e 642 941
e 643 672
e 643 692
e 643 718
e 643 719
e 643 962
e 643 930
e 644 993
e 644 752
e 646 950
e 646 707
e 647 838
e 648 976
e 648 917
e 648 822
e 649 705
e 650 675
e 650 681
e 652 829
e 652 948
e 652 779
e 652 998
e 652 730
e 653 753
e 653 848
e 653 806
e 653 791
e 654 688
e 654 908
e 655 712
e 656 888
e 658 717
e 658 870
e 659 879
e 659 794
e 659 849
e 661 814
e 661 823
e 661 800
e 662 805
e 662 967
e 664 971
e 664 789
e 664 739
e 665 935
e 665 764
e 665 940
e 666 748
e 666 952
e 666 848
e 667 838
e 667 723
e 670 791
e 670 682
e 670 989
e 672 995
e 672 703
e 673 679
e 674 861
e 675 721
e 676 774
e 676 734
e 676 831
e 678 784
e 678 831
e 681 794
e 681 698
e 682 902
e 683 795
e 683 982
e 684 977
e 688 973
e 688 895
e 688 784
e 688 911
e 688 957
e 688 726
e 691 743
e 692 881
e 692 823
e 693 801
e 693 793
e 696 872
e 697 981
e 698 782
e 703 908
e 703 863
e 704 732
e 704 884
e 705 829
e 706 884
e 706 851
e 706 787
e 706 821
e 707 732
e 709 716
e 710 778
e 711 779
e 711 977
e 711 724
e 712 884
e 713 897
e 713 889
e 716 798
e 716 921
e 717 993
e 718 772
e 718 870
e 718 850
e 719 748
e 722 755
e 723 939
e 723 978
e 724 774
e 724 970
e 726 766
e 726 893
e 727 795
e 727 992
e 728 951
e 728 981
e 728 757
e 730 852
e 730 998
e 732 943
e 734 920
e 735 820
e 737 881
e 739 998
e 743 829
e 743 879
e 743 820
e 744 832
e 750 756
e 750 862
e 751 911
e 753 765
e 753 962
e 756 919
e 759 992
e 760 932
e 761 836
e 761 902
e 763 901
e 764 921
e 764 787
e 764 829
e 765 990
e 766 911
e 766 863
e 766 992
e 769 804
e 769 960
e 772 827
e 774 814
e 774 973
e 774 885
e 778 990
e 780 914
e 783 828
e 783 927
e 785 936
e 787 920
e 789 852
e 790 964
e 791 841
e 793 947
e 794 920
e 794 905
e 799 871
e 800 822
e 800 997
e 805 882
e 808 847
e 809 834
e 813 841
e 813 920
e 814 905
e 814 876
e 815 931
e 817 837
e 817 942
e 819 955
e 820 918
e 821 914
e 821 945
e 822 892
e 824 1000
e 824 995
e 824 865
e 825 965
e 825 997
e 827 831
e 827 977
e 827 948
e 827 960
e 830 964
e 831 844
e 832 985
e 832 930
e 834 898
e 835 872
e 837 844
e 841 937
e 844 862
e 849 926
e 851 940
e 852 937
e 853 989
e 857 861
e 864 960
e 865 986
e 865 892
e 870 998
e 875 897
e 875 876
e 876 941
e 878 918
e 879 952
e 884 959
e 887 996
e 888 955
e 890 993
e 898 976
e 908 1000
e 912 938
e 919 948
e 920 924
e 920 957
e 920 959
e 925 956
e 927 978
e 935 959
e 943 989
e 952 987
e 953 982
e 954 964
e 954 985
e 958 994
e 966 981
e 966 995
e 967 1000
