txt_Ins/graph-1000-769.txt
n 1000
e 0 503
e 0 370
e 0 897
e 1 925
e 1 576
e 1 14
e 1 140
e 1 156
e 1 341
e 2 985
e 2 267
e 2 654
e 3 118
e 3 103
e 3 765
e 3 670
e 3 575
e 3 798
e 3 564
e 3 687
e 4 132
e 4 963
e 4 340
e 4 38
e 4 147
e 4 284
e 5 900
e 5 368
e 5 319
e 5 851
e 5 588
e 5 981
e 7 911
e 7 313
e 7 306
e 7 966
e 7 869
e 7 972
e 7 558
e 9 892
e 9 247
e 9 243
e 9 428
e 9 854
e 9 849
e 10 930
e 10 679
e 10 48
e 10 39
e 10 755
e 11 652
e 11 315
e 11 120
e 11 806
e 11 270
e 11 725
e 11 970
e 13 362
e 13 278
e 13 561
e 13 823
e 13 282
e 14 49
e 14 884
e 17 274
e 17 596
e 17 162
e 17 670
e 17 353
e 18 500
e 18 749
e 18 618
e 18 812
e 19 803
e 19 976
e 19 131
e 20 953
e 20 47
e 20 125
e 20 797
e 21 777
e 21 185
e 21 673
e 21 975
e 23 582
e 23 380
e 23 897
e 23 231
e 24 469
e 24 804
e 24 353
e 25 276
e 25 509
e 25 465
e 25 662
e 26 492
e 26 478
e 26 655
e 26 871
e 26 79
e 26 678
e 27 644
e 27 743
e 27 687
e 27 806
e 28 671
e 28 720
e 28 200
e 28 458
e 28 463
e 28 784
e 29 762
e 29 208
e 29 501
e 29 139
e 33 458
e 33 333
e 33 339
e 33 838
e 33 961
e 33 695
e 34 404
e 34 355
e 34 395
e 34 735
e 34 648
e 34 805
e 34 420
e 35 229
e 35 992
e 35 368
e 36 99
e 36 495
e 36 875
e 36 836
e 36 204
e 36 733
e 37 923
e 37 890
e 37 382
e 37 344
e 37 63
e 37 433
e 38 993
e 38 865
e 39 299
e 39 208
e 39 130
e 39 203
e 40 251
e 40 370
e 40 716
e 40 751
e 41 325
e 41 834
e 41 501
e 41 76
e 41 73
e 42 589
e 42 230
e 42 852
e 42 513
e 43 313
e 43 136
e 43 207
e 43 644
e 44 284
e 44 804
e 44 838
e 46 646
e 46 807
e 46 827
e 46 952
e 46 402
e 46 209
e 46 479
e 46 918
e 47 131
e 47 621
e 47 829
e 47 341
e 48 686
e 48 963
e 48 352
e 49 885
e 49 553
e 49 754
e 50 161
e 50 399
e 50 257
e 50 126
e 51 281
e 51 507
e 51 613
e 51 455
e 51 580
e 51 273
e 51 811
e 52 422
e 52 933
e 52 696
e 52 207
e 52 721
e 52 895
e 53 523
e 53 176
e 53 651
e 53 619
e 53 403
e 53 250
e 53 385
e 54 74
e 54 498
e 54 658
e 56 946
e 56 551
e 56 276
e 56 202
e 56 446
e 56 898
e 57 702
e 57 472
e 57 620
e 57 582
e 58 960
e 58 361
e 58 189
e 58 549
e 58 644
e 61 910
e 61 617
e 61 682
e 61 202
e 62 984
e 62 200
e 62 923
e 62 613
e 63 877
e 63 320
e 63 977
e 63 635
e 64 561
e 64 819
e 64 109
e 65 841
e 65 823
e 65 94
e 65 812
e 65 472
e 67 681
e 67 955
e 67 565
e 67 342
e 67 827
e 67 848
e 67 157
e 68 678
e 68 340
e 68 220
e 69 619
e 69 533
e 69 992
e 69 475
e 70 868
e 70 226
e 70 249
e 70 81
e 70 437
e 70 243
e 70 78
e 70 199
e 70 552
e 70 838
e 71 705
e 71 367
e 71 238
e 72 356
e 72 679
e 72 830
e 72 647
e 72 889
e 72 277
e 72 691
e 72 261
e 73 607
e 73 437
e 73 500
e 74 940
e 74 302
e 74 273
e 76 805
e 76 719
e 76 264
e 76 296
e 77 117
e 77 381
e 77 770
e 77 892
e 77 81
e 78 422
e 78 606
e 78 763
e 79 604
e 79 223
e 79 557
e 79 980
e 80 690
e 80 317
e 80 208
e 81 541
e 81 197
e 81 835
e 81 163
e 81 216
e 82 442
e 82 300
e 82 711
e 82 277
e 82 644
e 84 606
e 84 263
e 84 568
e 86 970
e 86 216
e 86 260
e 86 875
e 86 360
e 87 771
e 87 192
e 87 954
e 89 477
e 89 909
e 89 989
e 89 397
e 89 405
e 90 878
e 90 865
e 90 900
e 90 648
e 91 910
e 91 556
e 91 404
e 91 130
e 94 888
e 94 960
e 95 972
e 95 385
e 95 566
e 95 436
e 95 729
e 97 735
e 97 103
e 97 503
e 97 779
e 99 887
e 99 125
e 99 601
e 99 320
e 101 578
e 101 641
e 101 420
e 101 585
e 102 559
e 102 894
e 102 236
e 102 779
e 103 360
e 103 305
e 103 423
e 103 568
e 103 525
e 103 353
e 105 281
e 105 223
e 105 216
e 105 534
e 106 708
e 106 234
e 106 864
e 106 440
e 106 402
e 106 455
e 107 916
e 107 466
e 107 958
e 108 157
e 108 673
e 108 813
e 109 765
e 109 640
e 111 916
e 111 465
e 111 259
e 114 397
e 114 359
e 114 859
e 114 836
e 114 345
e 114 361
e 115 122
e 115 426
e 115 709
e 115 160
e 116 269
e 116 642
e 116 866
e 116 930
e 116 479
e 116 156
e 116 783
e 117 959
e 117 214
e 117 579
e 117 936
e 117 340
e 117 869
e 118 913
e 118 185
e 118 680
e 119 411
e 119 293
e 119 768
e 119 121
e 120 623
e 120 198
e 121 663
e 121 159
e 122 207
e 122 836
e 123 127
e 123 964
e 123 408
e 123 488
e 125 755
e 125 702
e 125 597
e 125 315
e 125 944
e 126 383
e 126 351
e 126 370
e 126 145
e 126 461
e 126 719
e 126 993
e 127 214
e 127 683
e 127 254
e 128 193
e 128 566
e 128 161
e 129 452
e 129 790
e 129 312
e 129 513
e 130 416
e 130 803
e 131 441
e 131 535
e 131 322
e 131 220
e 131 552
e 131 297
e 131 506
e 131 375
e 132 995
e 132 623
e 132 960
e 133 788
e 133 331
e 133 311
e 134 910
e 134 331
e 134 621
e 136 724
e 136 399
e 136 759
e 136 652
e 136 410
e 137 965
e 137 989
e 137 611
e 137 361
e 139 861
e 139 324
e 139 931
e 139 881
e 140 475
e 140 142
e 141 180
e 141 850
e 141 333
e 141 298
e 142 450
e 142 359
e 142 691
e 142 145
e 144 362
e 144 653
e 144 857
e 145 454
e 145 743
e 146 527
e 146 822
e 146 706
e 146 304
e 147 549
e 147 862
e 149 729
e 149 628
e 149 646
e 150 322
e 150 388
e 150 807
e 150 264
e 150 365
e 150 161
e 151 590
e 151 798
e 151 174
e 151 548
e 151 852
e 151 411
e 151 277
e 152 402
e 152 691
e 152 563
e 152 848
e 152 834
e 152 401
e 152 181
e 153 972
e 153 493
e 153 183
e 154 223
e 154 627
e 154 534
e 154 875
e 154 833
e 155 644
e 155 360
e 155 198
e 156 744
e 156 645
e 156 756
e 157 246
e 157 562
e 157 181
e 157 665
e 157 453
e 157 629
e 157 725
e 159 463
e 159 484
e 159 588
e 160 678
e 160 891
e 160 871
e 160 186
e 161 248
e 161 359
e 161 598
e 161 806
e 161 441
e 162 723
e 162 708
e 162 246
e 162 328
e 162 205
e 163 929
e 163 815
e 163 250
e 163 190
e 165 440
e 165 210
e 165 827
e 165 475
e 165 505
e 165 185
e 165 836
e 165 919
e 166 748
e 166 183
e 166 200
e 168 185
e 168 673
e 168 425
e 169 784
e 169 174
e 169 838
e 171 537
e 171 898
e 171 581
e 171 941
e 172 535
e 172 276
e 172 527
e 172 999
e 174 351
e 174 933
e 174 322
e 176 750
e 176 486
e 176 251
e 176 605
e 176 341
e 176 819
e 180 551
e 180 455
e 180 658
e 181 428
e 181 475
e 181 846
e 181 559
e 182 318
e 182 579
e 182 454
e 182 869
e 183 304
e 183 277
e 184 991
e 184 644
e 184 671
e 185 841
e 185 993
e 185 583
e 185 868
e 185 461
e 186 865
e 186 335
e 187 680
e 187 695
e 187 350
e 187 304
e 188 442
e 188 506
e 188 676
e 188 812
e 189 325
e 189 717
e 190 999
e 190 778
e 190 773
e 192 868
e 192 863
e 192 848
e 193 362
e 193 665
e 197 862
e 197 846
e 197 598
e 198 341
e 199 997
e 199 815
e 199 721
e 199 798
e 199 425
e 199 551
e 200 446
e 200 773
e 200 227
e 200 951
e 200 474
e 201 372
e 201 663
e 201 426
e 201 466
e 202 285
e 202 267
e 202 649
e 202 595
e 203 786
e 203 762
e 203 808
e 204 608
e 204 399
e 204 672
e 204 933
e 204 748
e 205 959
e 205 350
e 205 382
e 205 411
e 206 719
e 206 289
e 206 525
e 207 875
e 207 694
e 208 286
e 209 351
e 209 643
e 209 676
e 210 749
e 210 585
e 212 658
e 212 406
e 212 214
e 214 963
e 214 512
e 214 813
e 216 501
e 216 931
e 217 583
e 217 354
e 217 889
e 217 823
e 217 736
e 219 352
e 219 333
e 219 285
e 219 947
e 219 930
e 219 943
e 220 578
e 220 626
e 220 863
e 220 716
e 220 348
e 221 856
e 221 658
e 221 738
e 221 752
e 223 623
e 223 783
e 223 829
e 223 567
e 223 838
e 223 385
e 223 564
e 223 617
e 223 309
e 225 257
e 225 324
e 225 460
e 226 765
e 226 811
e 227 835
e 227 957
e 229 248
e 229 907
e 229 383
e 229 438
e 230 722
e 230 929
e 231 749
e 231 568
e 231 472
e 233 926
e 233 931
e 233 362
e 233 782
e 233 934
e 234 319
e 234 296
e 234 644
e 234 620
e 235 606
e 235 904
e 235 843
e 236 958
e 236 385
e 236 898
e 236 268
e 236 335
e 236 909
e 237 789
e 237 486
e 237 986
e 238 813
e 238 709
e 238 770
e 240 519
e 240 720
e 240 608
e 241 273
e 241 736
e 241 294
e 242 391
e 242 619
e 242 273
e 243 943
e 243 557
e 243 540
e 245 364
e 245 598
e 245 925
e 245 473
e 246 888
e 246 979
e 246 743
e 246 674
e 247 949
e 247 660
e 247 478
e 248 975
e 248 818
e 248 561
e 248 471
e 248 666
e 249 640
e 249 969
e 250 800
e 250 902
e 251 461
e 253 575
e 253 985
e 253 682
e 254 625
e 254 662
e 257 834
e 257 428
e 259 564
e 259 935
e 259 322
e 260 367
e 260 975
e 260 563
e 260 511
e 261 342
e 261 491
e 261 733
e 261 603
e 261 797
e 261 515
e 261 415
e 261 529
e 263 709
e 263 758
e 264 686
e 265 470
e 265 318
e 265 640
e 265 834
e 267 626
e 267 976
e 267 979
e 268 939
e 268 544
e 268 283
e 268 727
e 268 289
e 269 378
e 269 329
e 269 799
e 269 501
e 269 950
e 269 792
e 270 567
e 270 640
e 270 833
e 270 351
e 270 946
e 272 636
e 272 847
e 272 727
e 272 896
e 273 995
e 273 486
e 273 970
e 274 993
e 274 690
e 275 718
e 275 287
e 275 896
e 275 680
e 275 704
e 275 333
e 276 580
e 276 490
e 277 401
e 277 669
e 278 385
e 278 289
e 278 534
e 281 676
e 281 686
e 281 658
e 281 545
e 282 985
e 282 906
e 283 677
e 283 488
e 284 866
e 284 900
e 284 911
e 284 964
e 284 519
e 284 805
e 285 492
e 286 917
e 286 354
e 287 373
e 287 509
e 287 554
e 287 513
e 287 789
e 287 480
e 287 566
e 287 594
e 289 561
e 289 923
e 289 551
e 291 617
e 291 942
e 291 716
e 291 317
e 292 515
e 292 764
e 292 584
e 293 378
e 293 941
e 294 747
e 294 886
e 294 917
e 294 678
e 295 536
e 295 494
e 295 381
e 296 460
e 296 355
e 296 712
e 297 819
e 297 496
e 297 463
e 297 382
e 297 822
e 297 431
e 298 661
e 298 549
e 298 335
e 298 673
e 299 785
e 299 851
e 299 967
e 300 357
e 300 847
e 302 984
e 302 683
e 302 530
e 302 701
e 304 793
e 304 885
e 305 783
e 305 748
e 305 638
e 305 557
e 305 533
e 306 579
e 306 553
e 307 377
e 307 704
e 307 911
e 307 895
e 309 547
e 309 404
e 309 543
e 311 447
e 311 554
e 312 967
e 312 925
e 312 917
e 312 947
e 312 984
e 312 552
e 313 556
e 313 332
e 313 751
e 313 947
e 313 902
e 315 434
e 315 891
e 315 824
e 315 382
e 317 621
e 317 469
e 317 670
e 317 970
e 317 996
e 318 961
e 318 944
e 318 808
e 318 729
e 318 697
e 318 346
e 319 889
e 319 512
e 319 635
e 319 391
e 319 956
e 319 351
e 319 540
e 320 567
e 320 854
e 320 391
e 320 373
e 321 979
e 321 463
e 321 598
e 322 836
e 322 931
e 322 555
e 324 838
e 324 605
e 325 783
e 328 503
e 328 662
e 328 701
e 328 337
e 329 874
e 329 624
e 329 384
e 330 729
e 330 403
e 330 847
e 331 660
e 331 593
e 331 507
e 331 970
e 332 601
e 332 743
e 332 691
e 332 723
e 333 519
e 335 629
e 337 558
e 337 896
e 337 920
e 337 673
e 338 373
e 338 634
e 338 544
e 338 482
e 339 697
e 339 953
e 339 701
e 339 550
e 340 378
e 341 813
e 341 907
e 341 704
e 342 602
e 342 742
e 342 965
e 344 966
e 344 594
e 345 981
e 345 606
e 346 661
e 346 965
e 347 644
e 347 461
e 347 608
e 348 666
e 348 955
e 348 886
e 350 696
e 350 923
e 350 877
e 351 450
e 351 353
e 351 783
e 352 952
e 353 975
e 353 695
e 353 601
e 353 620
e 354 452
e 354 676
e 354 554
e 354 798
e 354 364
e 355 883
e 355 898
e 356 897
e 356 800
e 356 657
e 357 494
e 357 823
e 357 422
e 357 377
e 359 534
e 359 841
e 359 788
e 359 997
e 359 724
e 361 725
e 361 455
e 361 946
e 362 759
e 362 798
e 364 521
e 364 979
e 364 644
e 364 623
e 364 923
e 365 389
e 365 947
e 365 404
e 365 815
e 366 734
e 366 939
e 366 536
e 366 673
e 367 984
e 367 513
e 367 389
e 367 726
e 367 890
e 368 966
e 368 565
e 368 711
e 368 486
e 368 511
e 370 828
e 370 681
e 372 853
e 372 482
e 373 853
e 373 598
e 373 642
e 374 634
e 374 726
e 374 854
e 375 410
e 375 583
e 375 735
e 377 642
e 377 576
e 377 548
e 377 687
e 377 543
e 378 724
e 378 593
e 378 562
e 378 679
e 380 494
e 380 410
e 380 715
e 381 536
e 381 887
e 381 906
e 382 701
e 382 916
e 382 395
e 383 854
e 384 624
e 384 527
e 385 720
e 385 663
e 385 913
e 388 480
e 388 803
e 389 475
e 389 598
e 389 545
e 390 504
e 390 605
e 390 477
e 390 436
e 391 786
e 391 420
e 391 708
e 391 866
e 395 840
e 395 911
e 395 723
e 395 658
e 396 820
e 396 450
e 396 883
e 396 598
e 397 917
e 397 613
e 399 929
e 399 512
e 399 857
e 399 866
e 400 529
e 400 649
e 400 897
e 400 773
e 400 537
e 401 680
e 402 742
e 402 537
e 403 901
e 404 916
e 405 574
e 405 641
e 405 469
e 406 781
e 406 717
e 406 634
e 406 426
e 408 868
e 408 966
e 408 590
e 408 849
e 408 626
e 410 768
e 410 804
e 410 446
e 410 785
e 411 901
e 411 618
e 411 533
e 411 939
e 415 956
e 415 758
e 415 595
e 416 521
e 416 765
e 420 777
e 420 980
e 420 716
e 422 859
e 422 870
e 422 967
e 422 749
e 422 548
e 423 674
e 423 663
e 423 729
e 423 598
e 423 639
e 425 628
e 425 993
e 426 961
e 426 735
e 426 954
e 426 881
e 428 875
e 428 678
e 428 883
e 428 789
e 428 582
e 428 444
e 429 555
e 429 587
e 429 646
e 430 585
e 430 678
e 430 980
e 430 857
e 431 594
e 431 440
e 431 744
e 431 639
e 433 545
e 433 653
e 433 638
e 434 883
e 434 918
e 436 969
e 436 888
e 437 881
e 437 727
e 438 824
e 438 657
e 440 813
e 441 481
e 442 558
e 442 794
e 442 991
e 442 956
e 442 494
e 443 961
e 443 645
e 443 463
e 444 558
e 444 602
e 447 660
e 447 697
e 448 726
e 448 725
e 448 814
e 448 969
e 450 636
e 452 985
e 452 565
e 453 778
e 453 860
e 454 665
e 455 856
e 455 479
e 458 537
e 460 924
e 460 504
e 461 804
e 463 758
e 465 950
e 466 583
e 466 649
e 466 578
e 466 943
e 466 576
e 466 530
e 469 838
e 469 936
e 470 759
e 470 488
e 471 486
e 471 628
e 471 967
e 472 925
e 472 755
e 472 634
e 473 814
e 473 720
e 473 736
e 474 654
e 474 770
e 474 580
e 475 924
e 475 595
e 475 760
e 477 799
e 477 660
e 477 768
e 477 999
e 477 584
e 478 674
e 479 956
e 479 533
e 480 790
e 481 569
e 481 712
e 482 818
e 482 823
e 484 749
e 484 877
e 486 800
e 488 627
e 490 895
e 490 763
e 491 843
e 491 970
e 491 523
e 492 665
e 493 888
e 493 624
e 494 694
e 494 988
e 495 836
e 495 500
e 496 514
e 496 836
e 496 664
e 496 734
e 496 692
e 496 682
e 498 755
e 498 782
e 500 805
e 500 663
e 501 678
e 503 847
e 504 587
e 504 515
e 504 840
e 505 999
e 505 906
e 505 860
e 506 815
e 507 781
e 509 843
e 509 949
e 509 651
e 511 548
e 512 995
e 512 568
e 514 880
e 514 807
e 514 967
e 514 601
e 515 718
e 515 658
e 519 749
e 519 936
e 519 970
e 519 929
e 520 703
e 520 744
e 520 563
e 521 888
e 523 957
e 523 628
e 525 639
e 525 729
e 525 763
e 525 614
e 525 706
e 527 884
e 529 885
e 530 666
e 530 696
e 530 976
e 533 770
e 533 785
e 533 644
e 534 883
e 535 655
e 536 702
e 536 853
e 537 803
e 540 754
e 541 992
e 541 724
e 543 901
e 544 716
e 544 837
e 545 603
e 545 626
e 545 909
e 545 755
e 545 853
e 545 672
e 547 826
e 547 853
e 547 678
e 549 906
e 549 553
e 549 981
e 550 868
e 550 816
e 550 884
e 552 611
e 554 993
e 554 660
e 555 954
e 556 942
e 557 997
e 557 662
e 557 840
e 557 993
e 557 877
e 558 851
e 558 852
e 559 989
e 559 575
e 559 887
e 561 748
e 561 937
e 562 716
e 563 846
e 564 966
e 564 925
e 565 937
e 565 670
e 565 797
e 565 595
e 567 629
e 567 705
e 567 601
e 568 750
e 568 859
e 569 744
e 569 708
e 572 848
e 572 941
e 572 790
e 572 681
e 572 954
e 572 756
e 573 902
e 573 584
e 573 582
e 574 807
e 574 669
e 574 830
e 574 674
e 576 770
e 578 648
e 578 687
e 578 658
e 580 925
e 580 676
e 580 986
e 581 949
e 581 965
e 582 585
e 583 939
e 584 717
e 585 731
e 587 750
e 587 645
e 587 931
e 587 778
e 588 754
e 588 792
e 588 777
e 589 738
e 589 763
e 590 981
e 590 709
e 592 803
e 592 811
e 592 926
e 593 711
e 593 995
e 593 884
e 594 744
e 594 859
e 594 781
e 594 919
e 595 635
e 596 991
e 596 955
e 596 950
e 597 938
e 597 781
e 598 871
e 598 920
e 601 871
e 601 711
e 602 704
e 602 673
e 603 959
e 603 846
e 604 797
e 604 929
e 605 894
e 607 831
e 607 913
e 608 883
e 608 870
e 608 808
e 611 808
e 611 624
e 613 651
e 614 890
e 614 722
e 617 880
e 617 694
e 617 640
e 618 644
e 618 621
e 618 856
e 621 648
e 623 660
e 623 920
e 624 630
e 624 626
e 624 907
e 625 634
e 625 725
e 625 934
e 625 841
e 626 849
e 626 888
e 627 783
e 627 972
e 627 661
e 628 901
e 630 856
e 630 937
e 630 964
e 630 635
e 630 906
e 634 942
e 634 913
e 635 938
e 635 935
e 636 889
e 636 935
e 636 717
e 638 900
e 641 940
e 642 671
e 642 691
e 642 717
e 642 718
e 642 961
e 642 929
e 643 992
e 643 751
e 645 949
e 645 706
e 646 837
e 647 975
e 647 916
e 647 821
e 648 704
e 649 674
e 649 680
e 651 828
e 651 947
e 651 778
e 651 997
e 651 729
e 652 752
e 652 847
e 652 805
e 652 790
e 653 687
e 653 907
e 654 711
e 655 887
e 657 716
e 657 869
e 658 878
e 658 793
e 658 848
e 660 813
e 660 822
e 660 799
e 661 804
e 661 966
e 663 970
e 663 788
e 663 738
e 664 934
e 664 763
e 664 939
e 665 747
e 665 951
e 665 847
e 666 837
e 666 722
e 669 790
e 669 681
e 669 988
e 671 994
e 671 702
e 672 678
e 673 860
e 674 720
e 675 773
e 675 733
e 675 830
e 677 783
e 677 830
e 680 793
e 680 697
e 681 901
e 682 794
e 682 981
e 683 976
e 687 972
e 687 894
e 687 783
e 687 910
e 687 956
e 687 725
e 690 742
e 691 880
e 691 822
e 692 800
e 692 792
e 695 871
e 696 980
e 697 781
e 702 907
e 702 862
e 703 731
e 703 883
e 704 828
e 705 883
e 705 850
e 705 786
e 705 820
e 706 731
e 708 715
e 709 777
e 710 778
e 710 976
e 710 723
e 711 883
e 712 896
e 712 888
e 715 797
e 715 920
e 716 992
e 717 771
e 717 869
e 717 849
e 718 747
e 721 754
e 722 938
e 722 977
e 723 773
e 723 969
e 725 765
e 725 892
e 726 794
e 726 991
e 727 950
e 727 980
e 727 756
e 729 851
e 729 997
e 731 942
e 733 919
e 734 819
e 736 880
e 738 997
e 742 828
e 742 878
e 742 819
e 743 831
e 749 755
e 749 861
e 750 910
e 752 764
e 752 961
e 755 918
e 758 991
e 759 931
e 760 835
e 760 901
e 762 900
e 763 920
e 763 786
e 763 828
e 764 989
e 765 910
e 765 862
e 765 991
e 768 803
e 768 959
e 771 826
e 773 813
e 773 972
e 773 884
e 777 989
e 779 913
e 782 827
e 782 926
e 784 935
e 786 919
e 788 851
e 789 963
e 790 840
e 792 946
e 793 919
e 793 904
e 798 870
e 799 821
e 799 996
e 804 881
e 807 846
e 808 833
e 812 840
e 812 919
e 813 904
e 813 875
e 814 930
e 816 836
e 816 941
e 818 954
e 819 917
e 820 913
e 820 944
e 821 891
e 823 999
e 823 994
e 823 864
e 824 964
e 824 996
e 826 830
e 826 976
e 826 947
e 826 959
e 829 963
e 830 843
e 831 984
e 831 929
e 833 897
e 834 871
e 836 843
e 840 936
e 843 861
e 848 925
e 850 939
e 851 936
e 852 988
e 856 860
e 863 959
e 864 985
e 864 891
e 869 997
e 874 896
e 874 875
e 875 940
e 877 917
e 878 951
e 883 958
e 886 995
e 887 954
e 889 992
e 897 975
e 907 999
e 911 937
e 918 947
e 919 923
e 919 956
e 919 958
e 924 955
e 926 977
e 934 958
e 942 988
e 951 986
e 952 981
e 953 963
e 953 984
e 957 993
e 965 980
e 965 994
e 966 999
